
GUB cover cuts applied:  6
Cover cuts applied:  21
Implied bound cuts applied:  1
Mixed integer rounding cuts applied:  5
Zero-half cuts applied:  49
Lift and project cuts applied:  1
Gomory fractional cuts applied:  4

Root node processing (before b&c):
  Real time             =    0.41 sec. (307.83 ticks)
Parallel b&c, 4 threads:
  Real time             =    0.11 sec. (122.86 ticks)
  Sync time (average)   =    0.03 sec.
  Wait time (average)   =    0.00 sec.
                          ------------
Total (root+branch&cut) =    0.52 sec. (430.69 ticks)
Version identifier: 12.10.0.0 | 2019-11-26 | 843d4de
CPXPARAM_MIP_Interval                            10
CPXPARAM_MIP_Tolerances_AbsMIPGap                0.98999999999999999
Tried aggregator 2 times.
MIP Presolve eliminated 20205 rows and 20250 columns.
MIP Presolve modified 1 coefficients.
Aggregator did 75 substitutions.
Reduced MIP has 3155 rows, 2439 columns, and 9729 nonzeros.
Reduced MIP has 2439 binaries, 0 generals, 0 SOSs, and 0 indicators.
Presolve time = 0.03 sec. (29.80 ticks)
Probing fixed 30 vars, tightened 0 bounds.
Probing changed sense of 64 constraints.
Probing time = 0.01 sec. (12.43 ticks)
Tried aggregator 2 times.
MIP Presolve eliminated 344 rows and 256 columns.
Aggregator did 48 substitutions.
Reduced MIP has 2763 rows, 2135 columns, and 8495 nonzeros.
Reduced MIP has 2135 binaries, 0 generals, 0 SOSs, and 0 indicators.
Presolve time = 0.01 sec. (11.20 ticks)
Probing time = 0.00 sec. (6.19 ticks)
Tried aggregator 2 times.
Detecting symmetries...
MIP Presolve eliminated 102 rows and 82 columns.
Aggregator did 2 substitutions.
Reduced MIP has 2659 rows, 2051 columns, and 8165 nonzeros.
Reduced MIP has 2051 binaries, 0 generals, 0 SOSs, and 0 indicators.
Presolve time = 0.01 sec. (12.31 ticks)
Probing time = 0.00 sec. (2.68 ticks)
Clique table members: 2011.
MIP emphasis: balance optimality and feasibility.
MIP search method: dynamic search.
Parallel mode: deterministic, using up to 4 threads.
Root relaxation solution time = 0.01 sec. (7.45 ticks)

        Nodes                                         Cuts/
   Node  Left     Objective  IInf  Best Integer    Best Bound    ItCnt     Gap

      0     0       18.8333   110                     18.8333      330         
*     0+    0                           15.0000       18.8333            25.56%
      0     0       18.3333   110       15.0000     Cuts: 106      688   22.22%
      0     0       18.0000   110       15.0000     Cuts: 136      955   20.00%
      0     0       18.0000   110       15.0000     Cuts: 119     1116   20.00%
      0     0       18.0000   110       15.0000       Cuts: 5     1207   20.00%
      0     0       18.0000   110       15.0000      Cuts: 66     1396   20.00%
Detecting symmetries...
*     0+    0                           16.0000       18.0000            12.50%
Detecting symmetries...
      0     2       18.0000   187       16.0000       18.0000     1396   12.50%
Elapsed time = 0.57 sec. (510.82 ticks, tree = 0.02 MB, solutions = 2)
     10    11       17.3333     5       16.0000       18.0000     2272   12.50%
     20    13       17.5833   214       16.0000       18.0000     2737   12.50%
     30    16        cutoff             16.0000       18.0000     3666   12.50%
     40    23        cutoff             16.0000       18.0000     4575   12.50%
     50    25       18.0000   314       16.0000       18.0000     5310   12.50%
     60    27       17.2464   210       16.0000       18.0000     6196   12.50%
     70    27       17.5556   221       16.0000       18.0000     6149   12.50%
     80    36       17.4300   265       16.0000       18.0000     8380   12.50%
     90    34        cutoff             16.0000       18.0000     9429   12.50%
    100    35       17.6841   366       16.0000       18.0000     9695   12.50%
Elapsed time = 0.77 sec. (699.88 ticks, tree = 0.03 MB, solutions = 2)
    110    37       17.3737   440       16.0000       18.0000    10146   12.50%
    120    42       17.5534   427       16.0000       18.0000    10383   12.50%
    130    49       17.1667   197       16.0000       18.0000    13084   12.50%
    140    48       17.7374   381       16.0000       18.0000    13410   12.50%
    150    53       17.4298   338       16.0000       17.9583    16276   12.24%
    160    55       17.2500   427       16.0000       17.8750    17014   11.72%
    170    62       17.4375   282       16.0000       17.7417    19303   10.89%
    180    61    infeasible             16.0000       17.7417    19719   10.89%
    190    59       17.0000   147       16.0000       17.7417    20060   10.89%
    200    61       17.1250   332       16.0000       17.7417    19974   10.89%
Elapsed time = 0.92 sec. (856.68 ticks, tree = 0.09 MB, solutions = 2)
    210    56        cutoff             16.0000       17.7417    22217   10.89%
    220    53        cutoff             16.0000       17.6667    22636   10.42%
    230    61       17.0000   370       16.0000       17.6667    24318   10.42%
    240    56        cutoff             16.0000       17.5667    27018    9.79%
    250    54        cutoff             16.0000       17.5667    27124    9.79%
    260    54        cutoff             16.0000       17.5667    26120    9.79%
    270    50        cutoff             16.0000       17.5167    28436    9.48%
    280    52       17.0000   103       16.0000       17.5167    28682    9.48%
    290    37        cutoff             16.0000       17.5167    30049    9.48%
    300    47        cutoff             16.0000       17.5167    29783    9.48%
Elapsed time = 1.02 sec. (951.16 ticks, tree = 0.06 MB, solutions = 2)
    310    26       17.0000   156       16.0000       17.4312    32837    8.95%
    320    29        cutoff             16.0000       17.4312    31614    8.95%
    330    20    infeasible             16.0000       17.4312    33120    8.95%
    340    11        cutoff             16.0000       17.2727    33976    7.95%
the number of Nodes = 342
